\ This file has been generated by DOcplex
\ ENCODING=ISO-8859-1
\Problem name: random_problem.lp

Minimize
 obj: - 114 x0 - 57 x1 + 52 x2 + 26 x3 - 88 x4 - 44 x5 + 172 x6 + 86 x7 + 40 x8
      + 20 x9 - 616 x10 - 308 x11 + [ 328 x0^2 + 328 x0*x1 + 752 x0*x2
      + 376 x0*x3 + 320 x0*x4 + 160 x0*x5 + 416 x0*x6 + 208 x0*x7 + 144 x0*x8
      + 72 x0*x9 + 82 x1^2 + 376 x1*x2 + 188 x1*x3 + 160 x1*x4 + 80 x1*x5
      + 208 x1*x6 + 104 x1*x7 + 72 x1*x8 + 36 x1*x9 + 2448 x2^2 + 2448 x2*x3
      + 1712 x2*x4 + 856 x2*x5 + 416 x2*x6 + 208 x2*x7 + 1984 x2*x8 + 992 x2*x9
      + 1504 x2*x10 + 752 x2*x11 + 612 x3^2 + 856 x3*x4 + 428 x3*x5 + 208 x3*x6
      + 104 x3*x7 + 992 x3*x8 + 496 x3*x9 + 752 x3*x10 + 376 x3*x11 + 944 x4^2
      + 944 x4*x5 + 816 x4*x6 + 408 x4*x7 + 1600 x4*x8 + 800 x4*x9 + 1184 x4*x10
      + 592 x4*x11 + 236 x5^2 + 408 x5*x6 + 204 x5*x7 + 800 x5*x8 + 400 x5*x9
      + 592 x5*x10 + 296 x5*x11 + 1072 x6^2 + 1072 x6*x7 + 672 x6*x8 + 336 x6*x9
      + 512 x6*x10 + 256 x6*x11 + 268 x7^2 + 336 x7*x8 + 168 x7*x9 + 256 x7*x10
      + 128 x7*x11 + 984 x8^2 + 984 x8*x9 + 1376 x8*x10 + 688 x8*x11 + 246 x9^2
      + 688 x9*x10 + 344 x9*x11 + 992 x10^2 + 992 x10*x11 + 248 x11^2 ]/2
Subject To
 c0: 2 x0 + x1 + 2 x2 + x3 + 2 x4 + x5 + 2 x6 + x7 + 2 x8 + x9 + 2 x10 + x11 = 
     3

Bounds
 0 <= x0 <= 1
 0 <= x1 <= 1
 0 <= x2 <= 1
 0 <= x3 <= 1
 0 <= x4 <= 1
 0 <= x5 <= 1
 0 <= x6 <= 1
 0 <= x7 <= 1
 0 <= x8 <= 1
 0 <= x9 <= 1
 0 <= x10 <= 1
 0 <= x11 <= 1

Binaries
 x0 x1 x2 x3 x4 x5 x6 x7 x8 x9 x10 x11
End
